# LAMMPS coeff file via write_coeff, version 22 Aug 2018
# pair_style lj/charmmfsw/coul/long
pair_coeff 1 1 0.028 2.38761 0.028 2.38761
pair_coeff 1 2 0.025923 2.38761 0.025923 2.38761
pair_coeff 1 3 0.039598 2.98451 0.0167332 2.88652
pair_coeff 1 4 0.0467333 3.01124 0.0167332 2.88652
pair_coeff 1 5 0.052915 2.66379 0.052915 2.66379
pair_coeff 1 6 0.0579655 2.70833 0.0579655 2.70833
pair_coeff 1 7 0.114717 3.06469 0.114717 3.06469
pair_coeff 1 8 0.0358887 1.39381 0.0358887 1.39381
pair_coeff 1 9 0.0652595 2.76909 0.0652595 2.76909
pair_coeff 1 10 0.0362381 2.45064 0.0362381 2.45064
pair_coeff 1 11 0.384864 2.50833 0.384864 2.50833
pair_coeff 2 2 0.024 2.38761 0.024 2.38761
pair_coeff 2 3 0.0366606 2.98451 0.0154919 2.88652
pair_coeff 2 4 0.0432666 3.01124 0.0154919 2.88652
pair_coeff 2 5 0.0489898 2.66379 0.0489898 2.66379
pair_coeff 2 6 0.0536656 2.70833 0.0536656 2.70833
pair_coeff 2 7 0.106207 3.06469 0.106207 3.06469
pair_coeff 2 8 0.0332265 1.39381 0.0332265 1.39381
pair_coeff 2 9 0.0604185 2.76909 0.0604185 2.76909
pair_coeff 2 10 0.03355 2.45064 0.03355 2.45064
pair_coeff 2 11 0.356314 2.50833 0.356314 2.50833
pair_coeff 3 3 0.056 3.58141 0.01 3.38542
pair_coeff 3 4 0.0660908 3.60814 0.01 3.38542
pair_coeff 3 5 0.0748331 3.26069 0.0316228 3.1627
pair_coeff 3 6 0.0819756 3.30523 0.034641 3.20724
pair_coeff 3 7 0.162234 3.66159 0.0685565 3.56359
pair_coeff 3 8 0.0507543 1.99071 0.0214476 1.89272
pair_coeff 3 9 0.0922908 3.36599 0.039 3.26799
pair_coeff 3 10 0.0512484 3.04754 0.0216564 2.94954
pair_coeff 3 11 0.544279 3.10522 0.23 3.00723
pair_coeff 4 4 0.078 3.63487 0.01 3.38542
pair_coeff 4 5 0.0883176 3.28742 0.0316228 3.1627
pair_coeff 4 6 0.0967471 3.33196 0.034641 3.20724
pair_coeff 4 7 0.191468 3.68832 0.0685565 3.56359
pair_coeff 4 8 0.0598999 2.01744 0.0214476 1.89272
pair_coeff 4 9 0.108921 3.39272 0.039 3.26799
pair_coeff 4 10 0.0604831 3.07427 0.0216564 2.94954
pair_coeff 4 11 0.642355 3.13195 0.23 3.00723
pair_coeff 5 5 0.1 2.93997 0.1 2.93997
pair_coeff 5 6 0.109545 2.98452 0.109545 2.98452
pair_coeff 5 7 0.216795 3.34087 0.216795 3.34087
pair_coeff 5 8 0.0678233 1.66999 0.0678233 1.66999
pair_coeff 5 9 0.123329 3.04527 0.123329 3.04527
pair_coeff 5 10 0.0684836 2.72682 0.0684836 2.72682
pair_coeff 5 11 0.727324 2.78451 0.727324 2.78451
pair_coeff 6 6 0.12 3.02906 0.12 3.02906
pair_coeff 6 7 0.237487 3.38542 0.237487 3.38542
pair_coeff 6 8 0.0742967 1.71454 0.0742967 1.71454
pair_coeff 6 9 0.1351 3.08981 0.1351 3.08981
pair_coeff 6 10 0.07502 2.77136 0.07502 2.77136
pair_coeff 6 11 0.796743 2.82905 0.796743 2.82905
pair_coeff 7 7 0.47 3.74177 0.47 3.74177
pair_coeff 7 8 0.147037 2.07089 0.147037 2.07089
pair_coeff 7 9 0.267371 3.44617 0.267371 3.44617
pair_coeff 7 10 0.148469 3.12772 0.148469 3.12772
pair_coeff 7 11 1.5768 3.1854 1.5768 3.1854
pair_coeff 8 8 0.046 0.400014 0.046 0.400014
pair_coeff 8 9 0.0836457 1.77529 0.0836457 1.77529
pair_coeff 8 10 0.0464478 1.45684 0.0464478 1.45684
pair_coeff 8 11 0.493295 1.51453 0.493295 1.51453
pair_coeff 9 9 0.1521 3.15057 0.1521 3.15057
pair_coeff 9 10 0.08446 2.83212 0.08446 2.83212
pair_coeff 9 11 0.897 2.8898 0.897 2.8898
pair_coeff 10 10 0.0469 2.51367 0.0469 2.51367
pair_coeff 10 11 0.498097 2.57135 0.498097 2.57135
pair_coeff 11 11 5.29 2.62904 5.29 2.62904

# bond_style harmonic
bond_coeff 1 222.5 1.53
bond_coeff 2 222.5 1.528
bond_coeff 3 309 1.111
bond_coeff 4 340 1.43
bond_coeff 5 322 1.111
bond_coeff 6 0 1.5139
bond_coeff 7 450 0.9572
bond_coeff 8 540 1.448
bond_coeff 9 250 1.575

# angle_style charmm
angle_coeff 1 58.35 113.6 11.16 2.561
angle_coeff 2 58 115 8 2.561
angle_coeff 3 26.5 110.1 22.53 2.179
angle_coeff 4 75.7 110.1 0 0
angle_coeff 5 34.6 110.1 22.53 2.179
angle_coeff 6 15 109 27 1.9
angle_coeff 7 34.6 110.1 22.53 2.179
angle_coeff 8 35.5 109 5.4 1.802
angle_coeff 9 60 109.5 0 0
angle_coeff 10 35.5 108.4 5.4 1.802
angle_coeff 11 55 104.52 0 0
angle_coeff 12 130 109.47 35 2.45
angle_coeff 13 85 98 0 0

# dihedral_style charmmfsw
dihedral_coeff 1 0.101 2 0 1
dihedral_coeff 2 0.142 3 180 0
dihedral_coeff 3 0.074 4 0 0
dihedral_coeff 4 0.097 5 0 0
dihedral_coeff 5 0.162 2 0 1
dihedral_coeff 6 0.047 3 180 0
dihedral_coeff 7 0.105 4 0 0
dihedral_coeff 8 0.177 5 0 0
dihedral_coeff 9 0.19 3 0 1
dihedral_coeff 10 0 3 0 1
dihedral_coeff 11 0.16 3 0 1
dihedral_coeff 12 0 3 0 1
dihedral_coeff 13 0 3 0 1
dihedral_coeff 14 0.19 3 0 1
dihedral_coeff 15 0.19 3 0 1
dihedral_coeff 16 0.19 3 0 1
dihedral_coeff 17 0.16 3 0 1
dihedral_coeff 18 0 3 0 1

# improper_style harmonic

