# Minimal header to allow reading data files.
# Uses pair style without long interactions in order to avoid periodic box
# requirements.

# index varibles can be overridden by command line parameters "-v varName value"
variable is_restart              index  0 # marks current run as restart
variable pbc2d                   index  0 # 0: 3d periodic, 1: 2d periodic

variable surfactant_name         index  SDS # SDS or CTAB

# the standard TIP3P water model requires not only hydrogen bonds to be rigid,
# but also the HOH angle. Here we set the ID of this angle.
# Look it up within the data file. Usually 11 for SDS, 16 for CTAB

if "${surfactant_name} == SDS" then &
  "variable angleIdWater   index     11" &
else &
  "variable angleIdWater   index     16"

# LAMMPS input files contain a list of commands that are executed in order of
# appearance. General structure is
#   <command>  <parameters>
# All possible commands are listed at:
#   http://lammps.sandia.gov/doc/Section_commands.html
# LAMMPS will ignore lines that start with a '#'

#
# Dynamics of a hexagonal lattice
#

### General LAMMPS parameters ###
# include     lmp_header.input

# Two-dimensional system (each atom has two degrees-of-freedom)
dimension      3
# doc: http://lammps.sandia.gov/doc/dimension.html

# Boundary is periodic in all three dimensions per default
if "${is_restart} == 0 && ${pbc2d} > 0" then "boundary p p f"
# doc: http://lammps.sandia.gov/doc/boundary.html

# The atom style tells LAMMPS what type of atoms (particles) we have.
# "atomic" is the basic style. Example of another style is "charge" which is
# required for atoms that carry an electric charge.
atom_style     full
# doc: http://lammps.sandia.gov/doc/atom_style.html

if "${is_restart} == 0" then "units real"

# Parameters for neighbor list construction.
# neighbor       0.3 bin
# doc: http://lammps.sandia.gov/doc/neighbor.html

# neigh_modify   delay 5
# doc: http://lammps.sandia.gov/doc/neigh_modify.html

if "${is_restart} == 0" then "atom_style      full"
if "${is_restart} == 0" then "bond_style      harmonic"

if "${is_restart} == 0" then "angle_style     charmm"
# Source: http://lammps.sandia.gov/doc/angle_charmm.html
# angle potential E = K * ( theta - theta_0)^2 + K_UB * ( r - r_UB )^2

if "${is_restart} == 0" then "dihedral_style  charmmfsw"
# Source: http://lammps.sandia.gov/doc/dihedral_charmm.html
# dihedral potential E = K * [ 1 + cos( n*phi - d ) ]
#
# (MacKerell) MacKerell, Bashford, Bellott, Dunbrack, Evanseck, Field, Fischer,
#             Gao, Guo, Ha, et al, J Phys Chem B, 102, 3586 (1998).

if "${is_restart} == 0" then "improper_style  harmonic"
# if "${is_restart} == 0" then "pair_style      lj/charmmfsw/coul/long 8 12"
if "${is_restart} == 0" then "pair_style      lj/charmmfsw/coul/charmmfsh 8 12"
# Quote from http://lammps.sandia.gov/doc/pair_charmm.html
# The newer styles with charmmfsw or charmmfsh in their name replace the
# energy switching with force switching (fsw) and force shifting (fsh)
# functions, for LJ and Coulombic interactions respectively. These follow the
# formulas and description given in (Steinbach) and (Brooks) to minimize these
# artifacts.
#
# (Steinbach) Steinbach, Brooks, J Comput Chem, 15, 667 (1994).
# (Brooks)    Brooks, et al, J Comput Chem, 30, 1545 (2009).

if "${is_restart} == 0" then "pair_modify     mix arithmetic"
